p cnf 40 113
a 2 36 0
e 1 3 4 5 6 7 8 9 10 11 12 13 14 15 16 17 18 19 20 21 22 23 24 25 26 27 28 29 30 31 32 33 34 35 37 38 39 40 0
2 -3 -4 0
-2 3 -4 0
2 3 4 0
-2 -3 4 0
1 -4 -5 0
-1 4 -5 0
1 4 5 0
-1 -4 5 0
-7 -5 0
-7 6 0
5 -6 7 0
9 2 0
9 -8 0
-2 8 -9 0
9 -10 -11 0
-9 10 -11 0
9 10 11 0
-9 -10 11 0
-12 -3 0
-12 8 0
3 -8 12 0
-3 -12 -13 0
3 12 -13 0
-3 12 13 0
3 -12 13 0
-14 11 0
-14 13 0
-11 -13 14 0
7 -14 -15 0
-7 14 -15 0
7 14 15 0
-7 -14 15 0
16 6 0
16 12 0
-6 -12 -16 0
-8 -17 0
8 -17 0
18 19 -20 0
-18 -19 -20 0
18 -19 20 0
-18 19 20 0
17 20 -21 0
-17 -20 -21 0
17 -20 21 0
-17 20 21 0
-16 21 -22 0
16 -21 -22 0
-16 -21 22 0
16 21 22 0
-23 15 0
-23 22 0
-15 -22 23 0
8 4 -24 0
-8 -4 -24 0
8 -4 24 0
-8 4 24 0
8 -13 -25 0
-8 13 -25 0
8 13 25 0
-8 -13 25 0
-26 -25 0
-26 1 0
25 -1 26 0
-27 -24 0
-27 26 0
24 -26 27 0
-23 27 -28 0
23 -27 -28 0
-23 -27 28 0
23 27 28 0
-30 29 0
-30 -9 0
-29 9 30 0
-31 -10 0
-31 12 0
10 -12 31 0
32 18 0
32 2 0
-18 -2 -32 0
34 32 0
34 -33 0
-32 33 -34 0
-31 -34 -35 0
31 34 -35 0
-31 34 35 0
31 -34 35 0
-36 -30 0
-36 -35 0
30 35 36 0
37 28 0
37 -36 0
-28 36 -37 0
38 -5 0
38 -18 0
5 18 -38 0
39 2 0
39 38 0
-2 -38 -39 0
37 -39 -40 0
-37 39 -40 0
37 39 40 0
-37 -39 40 0
39 -23 6 -11 0
4 11 13 -35 0
26 -30 -13 -29 31 -39 0
32 35 8 3 17 37 -12 0
10 35 13 0
-3 -34 8 -19 40 0
29 -8 21 -30 9 0
-15 -28 -16 0
-14 33 19 0
24 12 -18 35 20 -27 0
40 0
